NAME          DCAP_2_4_3_500_SS303
ROWS
 N  OBJ
 L  CON1
 L  CON2
 L  CON3
 L  CON4
 L  CON5
 L  CON6
 L  CON7
 L  CON8
 L  CON9
 L  CON10
 L  CON11
 L  CON12
 E  CON13
 E  CON14
 E  CON15
 E  CON16
 E  CON17
 E  CON18
 E  CON19
 E  CON20
 E  CON21
 E  CON22
 E  CON23
 E  CON24
COLUMNS
    x[1,1]    OBJ       6.180167      CON1      1.000000    
    x[1,1]    CON7      -1.000000     CON8      -1.000000   
    x[1,1]    CON9      -1.000000   
    x[1,2]    OBJ       6.563535      CON2      1.000000    
    x[1,2]    CON8      -1.000000     CON9      -1.000000   
    x[1,3]    OBJ       7.443064      CON3      1.000000    
    x[1,3]    CON9      -1.000000   
    x[2,1]    OBJ       6.732585      CON4      1.000000    
    x[2,1]    CON10     -1.000000     CON11     -1.000000   
    x[2,1]    CON12     -1.000000   
    x[2,2]    OBJ       5.039546      CON5      1.000000    
    x[2,2]    CON11     -1.000000     CON12     -1.000000   
    x[2,3]    OBJ       6.054841      CON6      1.000000    
    x[2,3]    CON12     -1.000000   
    MARKER    'MARKER'                'INTORG'
    u[1,1]    OBJ       48.076654     CON1      -1.000000   
    u[1,2]    OBJ       20.066487     CON2      -1.000000   
    u[1,3]    OBJ       32.230043     CON3      -1.000000   
    u[2,1]    OBJ       49.996186     CON4      -1.000000   
    u[2,2]    OBJ       49.466655     CON5      -1.000000   
    u[2,3]    OBJ       27.484319     CON6      -1.000000   
    y[1,1,1]  OBJ       6.647720      CON7      1.037764    
    y[1,1,1]  CON13     1.000000    
    y[1,1,2]  OBJ       7.578343      CON8      0.830461    
    y[1,1,2]  CON14     1.000000    
    y[1,1,3]  OBJ       6.639424      CON9      0.797607    
    y[1,1,3]  CON15     1.000000    
    y[1,2,1]  OBJ       9.884785      CON7      1.194746    
    y[1,2,1]  CON16     1.000000    
    y[1,2,2]  OBJ       8.885537      CON8      0.904171    
    y[1,2,2]  CON17     1.000000    
    y[1,2,3]  OBJ       9.038182      CON9      1.344994    
    y[1,2,3]  CON18     1.000000    
    y[1,3,1]  OBJ       7.134462      CON7      0.922365    
    y[1,3,1]  CON19     1.000000    
    y[1,3,2]  OBJ       9.233689      CON8      0.566895    
    y[1,3,2]  CON20     1.000000    
    y[1,3,3]  OBJ       7.136807      CON9      0.647521    
    y[1,3,3]  CON21     1.000000    
    y[1,4,1]  OBJ       5.392646      CON7      0.861683    
    y[1,4,1]  CON22     1.000000    
    y[1,4,2]  OBJ       6.174251      CON8      0.858562    
    y[1,4,2]  CON23     1.000000    
    y[1,4,3]  OBJ       7.106309      CON9      1.074238    
    y[1,4,3]  CON24     1.000000    
    y[2,1,1]  OBJ       8.938069      CON10     1.037764    
    y[2,1,1]  CON13     1.000000    
    y[2,1,2]  OBJ       8.021395      CON11     0.830461    
    y[2,1,2]  CON14     1.000000    
    y[2,1,3]  OBJ       6.291625      CON12     0.797607    
    y[2,1,3]  CON15     1.000000    
    y[2,2,1]  OBJ       5.671178      CON10     1.194746    
    y[2,2,1]  CON16     1.000000    
    y[2,2,2]  OBJ       6.062263      CON11     0.904171    
    y[2,2,2]  CON17     1.000000    
    y[2,2,3]  OBJ       9.661899      CON12     1.344994    
    y[2,2,3]  CON18     1.000000    
    y[2,3,1]  OBJ       9.276656      CON10     0.922365    
    y[2,3,1]  CON19     1.000000    
    y[2,3,2]  OBJ       9.211768      CON11     0.566895    
    y[2,3,2]  CON20     1.000000    
    y[2,3,3]  OBJ       7.973373      CON12     0.647521    
    y[2,3,3]  CON21     1.000000    
    y[2,4,1]  OBJ       8.076048      CON10     0.861683    
    y[2,4,1]  CON22     1.000000    
    y[2,4,2]  OBJ       8.406560      CON11     0.858562    
    y[2,4,2]  CON23     1.000000    
    y[2,4,3]  OBJ       8.255381      CON12     1.074238    
    y[2,4,3]  CON24     1.000000    
    z[1,1]    OBJ       851.642627    CON13     1.000000    
    z[1,2]    OBJ       659.819480    CON14     1.000000    
    z[1,3]    OBJ       988.301534    CON15     1.000000    
    z[2,1]    OBJ       599.403808    CON16     1.000000    
    z[2,2]    OBJ       607.465415    CON17     1.000000    
    z[2,3]    OBJ       501.377295    CON18     1.000000    
    z[3,1]    OBJ       801.843735    CON19     1.000000    
    z[3,2]    OBJ       653.775359    CON20     1.000000    
    z[3,3]    OBJ       575.573964    CON21     1.000000    
    z[4,1]    OBJ       797.705673    CON22     1.000000    
    z[4,2]    OBJ       760.470057    CON23     1.000000    
    z[4,3]    OBJ       749.770615    CON24     1.000000    
    MARKER    'MARKER'                 'INTEND'
RHS
    RHS       CON1      -0.000000     CON2      -0.000000   
    RHS       CON3      -0.000000     CON4      -0.000000   
    RHS       CON5      -0.000000     CON6      -0.000000   
    RHS       CON7      -0.000000     CON8      -0.000000   
    RHS       CON9      -0.000000     CON10     -0.000000   
    RHS       CON11     -0.000000     CON12     -0.000000   
    RHS       CON13     1.000000      CON14     1.000000    
    RHS       CON15     1.000000      CON16     1.000000    
    RHS       CON17     1.000000      CON18     1.000000    
    RHS       CON19     1.000000      CON20     1.000000    
    RHS       CON21     1.000000      CON22     1.000000    
    RHS       CON23     1.000000      CON24     1.000000    
BOUNDS
 BV BOUND     u[1,1]  
 BV BOUND     u[1,2]  
 BV BOUND     u[1,3]  
 BV BOUND     u[2,1]  
 BV BOUND     u[2,2]  
 BV BOUND     u[2,3]  
 BV BOUND     y[1,1,1]
 BV BOUND     y[1,1,2]
 BV BOUND     y[1,1,3]
 BV BOUND     y[1,2,1]
 BV BOUND     y[1,2,2]
 BV BOUND     y[1,2,3]
 BV BOUND     y[1,3,1]
 BV BOUND     y[1,3,2]
 BV BOUND     y[1,3,3]
 BV BOUND     y[1,4,1]
 BV BOUND     y[1,4,2]
 BV BOUND     y[1,4,3]
 BV BOUND     y[2,1,1]
 BV BOUND     y[2,1,2]
 BV BOUND     y[2,1,3]
 BV BOUND     y[2,2,1]
 BV BOUND     y[2,2,2]
 BV BOUND     y[2,2,3]
 BV BOUND     y[2,3,1]
 BV BOUND     y[2,3,2]
 BV BOUND     y[2,3,3]
 BV BOUND     y[2,4,1]
 BV BOUND     y[2,4,2]
 BV BOUND     y[2,4,3]
 BV BOUND     z[1,1]  
 BV BOUND     z[1,2]  
 BV BOUND     z[1,3]  
 BV BOUND     z[2,1]  
 BV BOUND     z[2,2]  
 BV BOUND     z[2,3]  
 BV BOUND     z[3,1]  
 BV BOUND     z[3,2]  
 BV BOUND     z[3,3]  
 BV BOUND     z[4,1]  
 BV BOUND     z[4,2]  
 BV BOUND     z[4,3]  
ENDATA
